TIME 50
8028
42684
7055
42684
4827
42684
10320
42684
6191
42684
6675
42684
7749
42684
5894
42684
5301
42684
5617
42684
TIME 100
8467
42684
8596
42684
10118
42684
10639
42684
7188
42684
8246
42684
3554
42684
4617
42684
5188
42684
2709
42684
TIME 150
7971
42684
8606
42684
7021
42684
8671
42684
9700
42684
10089
42684
8187
42684
6007
42684
7609
42684
8255
42684
TIME 200
10363
42684
4559
42684
5504
42684
4082
42684
6292
42684
5269
42684
6073
42684
3796
42684
11435
42684
9636
42684
TIME 250
5849
42684
9292
42684
7399
42684
4305
42684
4631
42684
5188
42684
8641
42684
4242
42684
6408
42684
4378
42684
TIME 300
4977
42684
6460
42684
5556
42684
8341
42684
6485
42684
6526
42684
8433
42684
9182
42684
9130
42684
10279
42684
TIME 350
16262
42684
11228
42684
